%chk=cisbut.chk
# opt freq b3lyp/6-31g* geom=connectivity

Title Card Required

0 1
 C                 -3.39181300    1.59135688    1.17385002
 H                 -2.85864925    1.55072920    2.10066489
 H                 -4.46181300    1.59135688    1.17385002
 C                 -2.71653869    1.64281355    0.00000000
 H                 -3.24970243    1.68344123   -0.92681487
 C                 -1.17653869    1.64281355    0.00000000
 H                 -0.64337494    1.60218587   -0.92681487
 C                 -0.49429529    1.69409360    1.16982107
 H                 -1.02193776    1.73485929    2.09978429
 H                  0.57568583    1.69381519    1.16346987

 1 2 1.0 3 1.0 4 2.0
 2
 3
 4 5 1.0 6 1.0
 5
 6 7 1.0 8 2.0
 7
 8 9 1.0 10 1.0
 9
 10

