%chk=hex03.chk
# opt freq b3lyp/6-31g* geom=connectivity

Title Card Required

0 1
 C                 -2.69579706    0.63910544    2.72133545
 H                 -1.76322960    0.16972572    2.95564425
 H                 -2.95317756    1.57150738    3.17880883
 C                 -3.55206859    0.05672155    1.84715291
 H                 -4.48463605    0.52610127    1.61284412
 C                 -3.18163310   -1.28524012    1.18873328
 H                 -3.85770345   -1.74506211    0.49852127
 C                 -2.00231727   -1.88578139    1.48050614
 H                 -1.74493677   -2.81818334    1.02303276
 C                 -1.02928144   -1.22398152    2.47389539
 H                 -0.09815103   -1.69813970    2.70426504
 C                 -1.34827803   -0.04311757    3.05730651
 H                 -2.27793853    0.43580233    2.83088413
 H                 -0.66814735    0.41187692    3.74672820

 1 2 1.0 3 1.0 4 2.0
 2
 3
 4 5 1.0 6 1.0
 5
 6 7 1.0 8 2.0
 7
 8 9 1.0 10 1.0
 9
 10 11 1.0 12 2.0
 11
 12 13 1.0 14 1.0
 13
 14

